N = 10;
H = 6;
T = 2;

avail = array3d(1..N, 1..H, 1..T, [3, 9, 1, 6, 9, 10, 3, 3, 7, 10, 0, 5, 7, 2, 0, 4, 8, 6, 4, 6, 7, 10, 5, 4, 8, 7, 2, 9, 5, 9, 9, 5, 10, 4, 10, 8, 0, 4, 3, 7, 3, 9, 5, 8, 4, 4, 2, 6, 6, 2, 6, 7, 5, 10, 1, 5, 1, 3, 8, 3, 6, 2, 3, 7, 3, 3, 9, 2, 0, 2, 0, 9, 10, 8, 0, 5, 10, 7, 1, 5, 3, 4, 5, 8, 10, 6, 4, 5, 6, 6, 4, 2, 10, 8, 8, 6, 6, 6, 2, 4, 6, 5, 7, 2, 6, 0, 6, 7, 0, 1, 5, 1, 8, 4, 2, 6, 2, 5, 8, 6]);

r = array2d(1..H, 1..T, [2, 4, 3, 2, 4, 1, 4, 4, 1, 2, 2, 3]);
